(set-logic ALL)
(declare-fun seed0_T_1 () Bool)
(declare-fun seed0_T_2 () Bool)
(declare-fun seed0_T_3 () Bool)
(declare-fun seed0_T_4 () Bool)
(declare-fun seed0_T_5 () Bool)
(declare-fun seed0_T_6 () Bool)
(declare-fun seed0_T_7 () Bool)
(declare-fun seed0_T_8 () Bool)
(declare-fun seed0_var_0xINPUT_263575 () String)
(assert (and (or (= seed0_T_1 (not (= "" seed0_var_0xINPUT_263575))) (not (str.< (str.++ seed0_var_0xINPUT_263575 "fqHGAL") (str.++ seed0_var_0xINPUT_263575 "PpEHRKgxVYOGnef05W9")))) (or seed0_T_1 (xor (str.< (str.++ seed0_var_0xINPUT_263575 "WRkgTJAIeX9O52nSP8l") (str.++ seed0_var_0xINPUT_263575 "M52owtaLYXr4pnjdbvOD")) (str.suffixof (str.++ seed0_var_0xINPUT_263575 "BNKJo7EA39nj") (str.++ seed0_var_0xINPUT_263575 "AfDVgpmxQ8nY")))) (or (= seed0_T_2 (not (= "" seed0_var_0xINPUT_263575))) (=> (str.contains (str.++ seed0_var_0xINPUT_263575 "gca5Go1AOERPVsJYmQ") (str.++ seed0_var_0xINPUT_263575 "E")) (str.suffixof (str.++ seed0_var_0xINPUT_263575 "mgZjTMJobr") (str.++ seed0_var_0xINPUT_263575 "i4ThvZFkHGAMCVLD")))) (or seed0_T_2 (or (str.contains (str.++ seed0_var_0xINPUT_263575 "hUN") (str.++ seed0_var_0xINPUT_263575 "cdUq30HzBfCWMD7V2son")) (str.< (str.++ seed0_var_0xINPUT_263575 "KVCiLm0P3SZY") (str.++ seed0_var_0xINPUT_263575 "yq7fHDYP9Vx")))) (or (= seed0_T_3 (not (= seed0_var_0xINPUT_263575 "6JX7G3VKFq"))) (not (str.suffixof (str.++ seed0_var_0xINPUT_263575 "NK0x9e") (str.++ seed0_var_0xINPUT_263575 "5Vuck4")))) (or seed0_T_3 (xor (str.prefixof (str.++ seed0_var_0xINPUT_263575 "0tDK") (str.++ seed0_var_0xINPUT_263575 "bBM5pzkH")) (str.prefixof (str.++ seed0_var_0xINPUT_263575 "WBz") (str.++ seed0_var_0xINPUT_263575 "AIsl1RDMF2xBpOJf")))) (or (= seed0_T_4 (not (= "6JX7G3VKFq" seed0_var_0xINPUT_263575))) (=> (str.suffixof (str.++ seed0_var_0xINPUT_263575 "PNgA9Rsrn") (str.++ seed0_var_0xINPUT_263575 "ALj2seiMSdX4wv8")) (str.suffixof (str.++ seed0_var_0xINPUT_263575 "6E3e0y8oMv") (str.++ seed0_var_0xINPUT_263575 "0s")))) (or seed0_T_4 (str.suffixof (str.++ seed0_var_0xINPUT_263575 "R5Bxfbg") (str.++ seed0_var_0xINPUT_263575 "t5in7jM21"))) (or (= seed0_T_5 (= seed0_var_0xINPUT_263575 "")) (str.prefixof (str.++ seed0_var_0xINPUT_263575 "GcYnu5TOBEiNRpbytLw4") (str.++ seed0_var_0xINPUT_263575 "9"))) (or (= seed0_T_6 (not seed0_T_5)) (=> (str.< (str.++ seed0_var_0xINPUT_263575 "EcoJzegR7KQVb4HTvxk6") (str.++ seed0_var_0xINPUT_263575 "kYI0szMFl5Ao8Tn")) (str.< (str.++ seed0_var_0xINPUT_263575 "L29IBs80uPCgj") (str.++ seed0_var_0xINPUT_263575 "Vp8orTZvg6CYL5j")))) (or seed0_T_6 (xor (str.suffixof (str.++ seed0_var_0xINPUT_263575 "lnVuzBXyZCf1Wctekg") (str.++ seed0_var_0xINPUT_263575 "W8zUv")) (str.prefixof (str.++ seed0_var_0xINPUT_263575 "xylwWcu") (str.++ seed0_var_0xINPUT_263575 "WR1xHgtkzC8r93icJ")))) (or (= seed0_T_7 (not (= "" seed0_var_0xINPUT_263575))) (not (str.<= (str.++ seed0_var_0xINPUT_263575 "gEFkQfaj95oWdG") (str.++ seed0_var_0xINPUT_263575 "vCi32ojJ")))) (or seed0_T_7 (and (str.<= (str.++ seed0_var_0xINPUT_263575 "tPK9OS4fh1FAjwTVD") (str.++ seed0_var_0xINPUT_263575 "")) (str.prefixof (str.++ seed0_var_0xINPUT_263575 "2P") (str.++ seed0_var_0xINPUT_263575 "Nf3Xz1TCMIAm8cpnQGK")))) (or (= seed0_T_8 (not (= seed0_var_0xINPUT_263575 "ywUN4ZIDAC"))) (str.<= (str.++ seed0_var_0xINPUT_263575 "") (str.++ seed0_var_0xINPUT_263575 "vIUsVmYD2NSj9uJep"))) (or seed0_T_8 (xor (str.contains (str.++ seed0_var_0xINPUT_263575 "ktan") (str.++ seed0_var_0xINPUT_263575 "MZ6uTVBApG7jv0n1")) (str.contains (str.++ seed0_var_0xINPUT_263575 "83gRhp") (str.++ seed0_var_0xINPUT_263575 "sI0CWfSRupGELv7iFVbO"))))))
(check-sat)
(exit)